TCS_Benchmarks/redos_fix/snort1_output_distinct_4390_4389_0_0.txt
([^\s]*)([^\s]*)
([^\s]*)(([uU][sS][eE][rR][nN][aA][mM][eE]|[nN][uU][mM][aA]|[nN][uU][mM][bB]|[tT][yY][pP][eE]))([^\s]*)